c Output_time 26.03.2020 18:13:20_+0100 1585242800481802049
c ** Program information **
c program_name                          "QBRG_debug"
c version                               "0.3.20"
c date                                  "25.3.2020"
c gid_id                                "673970833836058123f633335630c185360d632e"
c author                                "Oliver Kullmann"
c url                                   "https://github.com/OKullmann/oklibrary/blob/master/Satisfiability/Transformers/Generators/Random/QBRG.cpp"
c ** Machine information **
c machine_name                          "chyna-Lenovo-G50-70"
c bogomips                              3791.08
c ** Compilation information **
c compiler_version                      "g++ 7.5.0"
c compilation_date                      "Mar_26_2020 11:16:30"
c compilation_options                   "--std=c++17 -pedantic -fmax-errors=5 -Wall -Wextra -g -D_GLIBCXX_DEBUG"
c NDEBUG                                0
c OPTIMIZE                              0
c ** Parameters **
c command-line                          "./QBRG_debug" "e40 a40 40" "419*1,1|2-2,1|3-3,1" "" "1,t" ""
c output                                "QuBlRaGe_120_419_1585242800316772488.qdimacs"
c options                               "filtered,renamed"
c num_quantifier_blocks                 3
c  quantifier_blocks                    1:e1-40 2:a41-80 3:e81-120
c num_clause-blocks                     1
c  clause-blocks                        419 * {1-40,1,1/2} | {41-80,1,1/2} | {81-120,1,1/2}
c num_e-seeds                           30+2=32
c  e-seeds                              1 0 1 0 4 120 2 40 1 40 0 40 1 419 3 1 1 1 1 2 2 2 1 1 2 3 3 1 1 2 1 1585242800316771791
p cnf 120 419
e 1 2 3 4 5 6 7 8 9 10 11 12 13 14 15 16 17 18 19 20 21 22 23 24 25 26 27 28 29 30 31 32 33 34 35 36 37 38 39 40 0
a 41 42 43 44 45 46 47 48 49 50 51 52 53 54 55 56 57 58 59 60 61 62 63 64 65 66 67 68 69 70 71 72 73 74 75 76 77 78 79 80 0
e 81 82 83 84 85 86 87 88 89 90 91 92 93 94 95 96 97 98 99 100 101 102 103 104 105 106 107 108 109 110 111 112 113 114 115 116 117 118 119 120 0
-7 48 -81 0
-28 52 -81 0
14 56 -81 0
10 -66 -81 0
4 -67 -81 0
19 79 -81 0
20 44 81 0
-38 -58 81 0
-1 -74 81 0
-40 54 -82 0
-16 66 -82 0
36 72 -82 0
-3 -41 82 0
4 41 82 0
30 44 82 0
13 49 82 0
25 51 82 0
-27 71 82 0
1 72 82 0
-34 -74 82 0
-8 45 -83 0
21 54 -83 0
-7 57 -83 0
-23 -69 -83 0
-1 75 -83 0
37 -77 -83 0
-6 48 83 0
22 57 83 0
5 61 83 0
-28 -76 83 0
-32 44 -84 0
-6 -78 -84 0
19 -80 -84 0
37 -43 84 0
-37 60 84 0
34 47 -85 0
-34 -65 -85 0
-24 -66 -85 0
27 67 -85 0
5 79 -85 0
-10 49 85 0
15 -54 85 0
15 68 85 0
20 73 85 0
29 80 85 0
-34 -41 -86 0
38 43 -86 0
37 51 -86 0
22 -68 -86 0
-8 68 -86 0
-28 -71 -86 0
-15 71 -86 0
-10 -45 86 0
25 48 86 0
40 73 86 0
21 -52 -87 0
35 -60 -87 0
-20 69 -87 0
-30 53 87 0
40 61 87 0
-31 -62 87 0
8 -71 87 0
13 76 87 0
2 42 -88 0
-25 48 -88 0
-8 -59 -88 0
-1 63 -88 0
33 -67 -88 0
21 72 -88 0
-6 -44 88 0
2 51 88 0
40 -66 88 0
27 69 88 0
10 73 88 0
19 45 -89 0
-21 -49 -89 0
22 50 -89 0
-3 52 -89 0
9 -56 -89 0
-5 66 -89 0
14 67 -89 0
-32 69 -89 0
15 72 -89 0
-19 -73 -89 0
12 -75 -89 0
-11 -66 89 0
-37 68 89 0
-40 77 89 0
6 -56 -90 0
2 61 -90 0
-12 -76 -90 0
-16 77 -90 0
15 -78 -90 0
36 -57 90 0
3 73 90 0
-27 -80 90 0
-23 -45 -91 0
-32 -51 -91 0
38 59 -91 0
18 -62 -91 0
-12 64 -91 0
-8 65 -91 0
18 -66 -91 0
-34 69 -91 0
-21 75 -91 0
35 -44 91 0
-26 -60 91 0
-31 -63 91 0
-4 -64 91 0
-11 44 -92 0
8 51 -92 0
-9 -55 -92 0
-34 -57 -92 0
21 -61 -92 0
8 -63 -92 0
-36 67 -92 0
10 -69 -92 0
28 42 92 0
22 -44 92 0
25 49 92 0
-29 56 92 0
40 73 92 0
25 -54 -93 0
38 -55 -93 0
16 57 -93 0
39 -61 -93 0
35 -65 -93 0
34 -68 -93 0
33 68 -93 0
13 -41 93 0
18 -45 93 0
-8 51 93 0
-34 58 93 0
-15 67 93 0
-7 75 93 0
17 -48 -94 0
6 51 -94 0
-36 51 -94 0
-33 54 -94 0
3 -58 -94 0
-25 72 -94 0
-31 -49 94 0
-35 58 94 0
9 59 94 0
30 60 94 0
12 -66 94 0
-6 -79 94 0
35 53 -95 0
6 -63 -95 0
-37 -63 -95 0
-5 68 -95 0
-34 74 -95 0
-35 75 -95 0
-34 -78 -95 0
21 53 95 0
23 -58 95 0
6 66 95 0
18 68 95 0
29 69 95 0
19 -73 95 0
-3 44 -96 0
6 -46 -96 0
-39 -49 -96 0
-17 -50 -96 0
9 53 -96 0
-35 60 -96 0
10 -72 -96 0
-39 74 -96 0
19 41 96 0
-12 -47 96 0
11 -51 96 0
-26 52 96 0
-38 -70 96 0
-36 -79 96 0
-20 -42 -97 0
-31 -42 -97 0
17 60 -97 0
20 60 -97 0
14 -71 -97 0
29 -71 -97 0
-40 74 -97 0
17 -47 97 0
-3 47 97 0
24 48 97 0
-9 64 97 0
18 47 -98 0
2 49 -98 0
39 -61 -98 0
40 59 98 0
-28 -63 98 0
-31 63 98 0
-17 68 98 0
-39 68 98 0
-21 -69 98 0
16 70 98 0
16 75 98 0
-17 -80 98 0
-35 -80 98 0
-38 -80 98 0
1 46 -99 0
10 56 -99 0
25 -64 -99 0
28 -66 -99 0
-19 -70 -99 0
-16 -65 99 0
-14 -77 99 0
6 42 -100 0
-17 -48 -100 0
32 51 -100 0
-3 53 -100 0
-26 -56 100 0
1 -64 100 0
-37 -69 100 0
37 69 100 0
-7 -71 100 0
40 76 100 0
18 43 -101 0
-16 58 -101 0
-25 63 -101 0
-12 -51 101 0
-38 -62 101 0
3 69 101 0
31 71 101 0
38 -74 101 0
17 -42 -102 0
30 42 -102 0
23 -50 -102 0
5 55 -102 0
33 -57 -102 0
-3 60 -102 0
-28 -70 -102 0
-30 72 -102 0
-3 -50 102 0
16 -54 102 0
23 -69 102 0
19 69 102 0
-38 -72 102 0
22 -76 102 0
40 76 102 0
-31 -43 -103 0
-36 47 -103 0
-9 -50 -103 0
-15 66 -103 0
-26 -68 -103 0
1 42 103 0
-35 -50 103 0
40 50 103 0
-14 -62 103 0
-33 -63 103 0
-25 43 -104 0
-27 50 -104 0
-6 53 -104 0
-19 -60 -104 0
26 -63 -104 0
-19 -66 -104 0
25 -49 104 0
33 -65 104 0
7 45 -105 0
36 -47 -105 0
-21 53 -105 0
-5 58 -105 0
36 67 -105 0
7 -69 -105 0
-2 69 -105 0
17 -76 -105 0
33 42 105 0
-37 44 105 0
16 -66 105 0
25 70 105 0
19 -74 105 0
-20 49 -106 0
16 57 -106 0
-22 57 -106 0
-30 -58 -106 0
-38 -57 106 0
39 -59 106 0
-3 -71 106 0
23 45 -107 0
34 -46 -107 0
-15 65 -107 0
4 66 -107 0
-40 -79 -107 0
-6 -50 107 0
-16 58 107 0
19 62 107 0
-13 -70 107 0
-37 70 107 0
-20 -72 107 0
-39 -75 107 0
11 -41 -108 0
-13 -59 -108 0
21 62 -108 0
-26 63 -108 0
24 -74 -108 0
-38 -47 108 0
-31 53 108 0
-32 -56 108 0
-29 -67 108 0
-15 72 108 0
-28 73 108 0
-8 -74 108 0
-34 -75 108 0
16 -76 108 0
34 80 108 0
39 -56 -109 0
6 -57 -109 0
23 68 -109 0
-5 -71 -109 0
26 71 -109 0
28 -41 109 0
-27 -42 109 0
24 45 109 0
19 48 109 0
19 75 109 0
-37 58 -110 0
-14 78 -110 0
-38 42 110 0
-11 -46 110 0
18 -65 110 0
11 -72 110 0
5 79 110 0
18 -80 110 0
-33 47 -111 0
8 -68 -111 0
-13 -42 111 0
-33 63 111 0
-28 -75 111 0
5 41 -112 0
-36 -58 -112 0
2 -60 -112 0
23 -68 -112 0
-23 -72 -112 0
-37 72 -112 0
-33 74 -112 0
-25 43 112 0
27 45 112 0
-35 50 112 0
32 53 112 0
-27 56 112 0
-11 -57 112 0
34 59 112 0
17 71 112 0
-16 41 -113 0
15 -44 -113 0
-29 -49 -113 0
38 -56 -113 0
5 71 -113 0
-9 -44 113 0
-1 67 113 0
32 41 -114 0
35 60 -114 0
16 -61 -114 0
24 76 -114 0
-27 77 -114 0
-30 44 114 0
-16 -45 114 0
-37 -53 114 0
-32 -60 114 0
-27 -62 114 0
-12 65 114 0
35 71 114 0
-33 73 114 0
-31 41 -115 0
-35 45 -115 0
-30 -59 115 0
-37 -59 115 0
-38 -67 115 0
30 74 115 0
17 -41 -116 0
38 53 -116 0
-2 -58 -116 0
-37 -64 -116 0
-39 74 -116 0
-27 75 -116 0
27 55 116 0
29 -75 116 0
13 -77 116 0
12 77 116 0
-17 -78 116 0
-27 -48 -117 0
-9 -49 -117 0
-35 57 -117 0
-11 -72 -117 0
32 74 -117 0
-8 -79 -117 0
19 -44 117 0
40 52 117 0
3 -55 117 0
5 -59 117 0
15 -59 117 0
-22 77 117 0
27 -78 117 0
-20 -42 -118 0
-31 44 -118 0
-32 66 -118 0
8 69 -118 0
10 78 -118 0
-33 80 -118 0
2 42 118 0
35 -48 118 0
23 52 118 0
12 -53 118 0
-11 -72 118 0
27 77 118 0
-30 45 -119 0
28 -46 -119 0
-9 63 119 0
-34 65 119 0
-11 -68 119 0
-11 48 -120 0
15 -54 -120 0
23 78 -120 0
22 -42 120 0
4 -47 120 0
30 -47 120 0
-29 49 120 0
13 -60 120 0
20 -63 120 0
-19 72 120 0
